data/MCDM/NO_CORR/GEN_FROM_60/17_ITEMS_1000_GEN/K5017W19.KNP.mps
NAME          BLANK   
ROWS
 N  OBJROW
 L  R0000000
COLUMNS
    C0000000  OBJROW     -500.         R0000000  16.         
    C0000001  OBJROW     -959.         R0000000  811.        
    C0000002  OBJROW     -872.         R0000000  341.        
    C0000003  OBJROW     -344.         R0000000  244.        
    C0000004  OBJROW     -843.         R0000000  384.        
    C0000005  OBJROW     -226.         R0000000  42.         
    C0000006  OBJROW     -200.         R0000000  713.        
    C0000007  OBJROW     -413.         R0000000  124.        
    C0000008  OBJROW     -116.         R0000000  663.        
    C0000009  OBJROW     -732.         R0000000  8.          
    C0000010  OBJROW     -68.          R0000000  488.        
    C0000011  OBJROW     -959.         R0000000  634.        
    C0000012  OBJROW     -842.         R0000000  808.        
    C0000013  OBJROW     -369.         R0000000  711.        
    C0000014  OBJROW     -465.         R0000000  291.        
    C0000015  OBJROW     -473.         R0000000  780.        
    C0000016  OBJROW     -513.         R0000000  221.        
RHS
    RHS       R0000000  14458.      
BOUNDS
 BV BOUND     C0000000  1.          
 BV BOUND     C0000001  1.          
 BV BOUND     C0000002  1.          
 BV BOUND     C0000003  1.          
 BV BOUND     C0000004  1.          
 BV BOUND     C0000005  1.          
 BV BOUND     C0000006  1.          
 BV BOUND     C0000007  1.          
 BV BOUND     C0000008  1.          
 BV BOUND     C0000009  1.          
 BV BOUND     C0000010  1.          
 BV BOUND     C0000011  1.          
 BV BOUND     C0000012  1.          
 BV BOUND     C0000013  1.          
 BV BOUND     C0000014  1.          
 BV BOUND     C0000015  1.          
 BV BOUND     C0000016  1.          
ENDATA
