data/MCDM/NO_CORR/GEN_FROM_60/17_ITEMS_1000_GEN/K5017W19.KNP.txt
N 17
M 18
LC 17
LC 18
LC 19
LC 20
LC 21
LC 22
LC 23
LC 24
LC 25
LC 26
LC 27
LC 28
LC 29
LC 30
LC 31
LC 32
LC 33
LR 1
LR 2
LR 3
LR 4
LR 5
LR 6
LR 7
LR 8
LR 9
LR 10
LR 11
LR 12
LR 13
LR 14
LR 15
LR 16
LR 17
LR 18
LO -500
LO -959
LO -872
LO -344
LO -843
LO -226
LO -200
LO -413
LO -116
LO -732
LO -68
LO -959
LO -842
LO -369
LO -465
LO -473
LO -513
OS 1
IC 638
IC 757
IC 63
IC 411
IC 724
IC 939
IC 254
IC 891
IC 144
IC 696
IC 968
IC 227
IC 64
IC 783
IC 796
IC 604
IC 837
IB 4898
